************************************************************************
file with basedata            : mm28_.bas
initial value random generator: 1360248986
************************************************************************
projects                      :  1
jobs (incl. supersource/sink ):  12
horizon                       :  74
RESOURCES
  - renewable                 :  2   R
  - nonrenewable              :  2   N
  - doubly constrained        :  0   D
************************************************************************
PROJECT INFORMATION:
pronr.  #jobs rel.date duedate tardcost  MPM-Time
    1     10      0       20        3       20
************************************************************************
PRECEDENCE RELATIONS:
jobnr.    #modes  #successors   successors
   1        1          3           2   3   4
   2        3          2           5  10
   3        3          2           5   6
   4        3          1          10
   5        3          2           7  11
   6        3          2           7   8
   7        3          1           9
   8        3          2           9  11
   9        3          1          12
  10        3          1          12
  11        3          1          12
  12        1          0        
************************************************************************
REQUESTS/DURATIONS:
jobnr. mode duration  R 1  R 2  N 1  N 2
------------------------------------------------------------------------
  1      1     0       0    0    0    0
  2      1     3       0    9    0   10
         2     8       0    4    0    9
         3    10       6    0    0    8
  3      1     3       4    0    0    5
         2     5       2    0    0    5
         3     5       0    5    5    0
  4      1     2       0    4    0    7
         2     9       6    0    6    0
         3    10       6    0    5    0
  5      1     5       8    0    7    0
         2     7       8    0    0    8
         3     9       7    0    6    0
  6      1     5       1    0    0    2
         2     5       0    4    0    2
         3     9       0    3    9    0
  7      1     1       0    6    0    5
         2     4       0    6    8    0
         3     4       3    0    0    2
  8      1     6       6    0    4    0
         2     7       6    0    0    7
         3     7       0    3    0    5
  9      1     3       0    7    0    4
         2     5       0    7    0    3
         3     6       0    7    8    0
 10      1     5      10    0    0    8
         2     6       9    0    8    0
         3     7       8    0    8    0
 11      1     6       0    6    3    0
         2     7       5    0    2    0
         3     7       0    5    2    0
 12      1     0       0    0    0    0
************************************************************************
RESOURCEAVAILABILITIES:
  R 1  R 2  N 1  N 2
   24   18   58   56
************************************************************************
MAXIMAL LAGS:
from  to  type  delay
    1   12   ES      0
    1    2   ES      0
    2   12   ES      0
    1    3   ES      0
    3   12   ES      0
    1    4   ES      0
    4   12   ES      0
    1    5   ES      0
    5   12   ES      0
    1    6   ES      0
    6   12   ES      0
    1    7   ES      0
    7   12   ES      0
    1    8   ES      0
    8   12   ES      0
    1    9   ES      0
    9   12   ES      0
    1   10   ES      0
   10   12   ES      0
    1   11   ES      0
   11   12   ES      0
    1   12   ES      0
    2    5   SS     10
    2    5   SE     11
    2    5   ES     -9
    2    5   EE    -10
    2   10   SS     -9
    2   10   SE     10
    2   10   ES      2
    2   10   EE      8
    3    5   SS     -1
    3    5   SE    -10
    3    5   ES      4
    3    5   EE     10
    3    6   SS      0
    3    6   SE     11
    3    6   ES      4
    3    6   EE      7
    4   10   SS     -7
    4   10   SE      0
    4   10   ES      5
    4   10   EE      0
    5    7   SS    -11
    5    7   SE     12
    5    7   ES     -7
    5    7   EE     -2
    5   11   SS      6
    5   11   SE      9
    5   11   ES     -8
    5   11   EE     -7
    6    7   SS     -8
    6    7   SE     -7
    6    7   ES     12
    6    7   EE     10
    6    8   SS    -11
    6    8   SE      1
    6    8   ES     -3
    6    8   EE     -3
    7    9   SS     11
    7    9   SE     12
    7    9   ES      2
    7    9   EE     -3
    8    9   SS      8
    8    9   SE     -7
    8    9   ES     -9
    8    9   EE     -8
    8   11   SS     -6
    8   11   SE    -12
    8   11   ES      7
    8   11   EE     12
************************************************************************
